c colouring generated by benchmark framework
p edge 196 4186
v 1 8
v 2 15
v 3 3
v 4 16
v 5 14
v 6 5
v 7 18
v 8 13
v 9 6
v 10 9
v 11 11
v 12 2
v 13 17
v 14 10
v 15 17
v 16 11
v 17 14
v 18 1
v 19 8
v 20 15
v 21 9
v 22 16
v 23 5
v 24 3
v 25 7
v 26 10
v 27 6
v 28 4
v 29 6
v 30 0
v 31 9
v 32 10
v 33 7
v 34 1
v 35 12
v 36 2
v 37 8
v 38 4
v 39 5
v 40 17
v 41 20
v 42 11
v 43 19
v 44 17
v 45 1
v 46 5
v 47 4
v 48 8
v 49 10
v 50 20
v 51 0
v 52 2
v 53 3
v 54 15
v 55 16
v 56 12
v 57 5
v 58 7
v 59 10
v 60 2
v 61 3
v 62 0
v 63 4
v 64 14
v 65 16
v 66 1
v 67 6
v 68 8
v 69 13
v 70 18
v 71 2
v 72 14
v 73 5
v 74 15
v 75 11
v 76 13
v 77 6
v 78 18
v 79 7
v 80 0
v 81 4
v 82 3
v 83 12
v 84 8
v 85 13
v 86 10
v 87 4
v 88 3
v 89 2
v 90 18
v 91 0
v 92 5
v 93 14
v 94 20
v 95 1
v 96 7
v 97 11
v 98 9
v 99 7
v 100 19
v 101 6
v 102 0
v 103 17
v 104 12
v 105 8
v 106 1
v 107 18
v 108 15
v 109 2
v 110 9
v 111 3
v 112 20
v 113 10
v 114 8
v 115 7
v 116 12
v 117 1
v 118 11
v 119 3
v 120 9
v 121 2
v 122 17
v 123 0
v 124 6
v 125 4
v 126 14
v 127 18
v 128 6
v 129 15
v 130 4
v 131 0
v 132 2
v 133 1
v 134 7
v 135 3
v 136 19
v 137 8
v 138 5
v 139 9
v 140 13
v 141 12
v 142 13
v 143 8
v 144 9
v 145 5
v 146 3
v 147 11
v 148 0
v 149 1
v 150 14
v 151 17
v 152 19
v 153 2
v 154 15
v 155 11
v 156 9
v 157 2
v 158 7
v 159 6
v 160 16
v 161 5
v 162 10
v 163 12
v 164 8
v 165 13
v 166 4
v 167 1
v 168 19
v 169 3
v 170 20
v 171 18
v 172 14
v 173 9
v 174 4
v 175 2
v 176 11
v 177 13
v 178 6
v 179 16
v 180 12
v 181 10
v 182 7
v 183 16
v 184 12
v 185 0
v 186 8
v 187 10
v 188 14
v 189 19
v 190 3
v 191 4
v 192 7
v 193 9
v 194 13
v 195 5
v 196 6
